40 96 59 95 76 75 23 65 65 16 71 52 84 99 24
2 88 99 52 68 13 38 35 57 37 93 38 68 94 71
87 46 14 87 30 79 62 37 54  1 97 16  2 51 96
19 15 42  8 72 15 76 25 78 84 62 70 81 16 97
68 71  3 68 91 37 73 21 85 79 51 50 21 30 64
14  1 29 72  6 31 98 50 83  2 86 33 33 98 59
21 80 99 70 80 71 47 96 56 78 53 10 92  1 33
29 85 89 10 30 38 38 48 16 65 90 73 88 46 47
37  9 49 23  1 78 39 15  9 41 35 83  8 61 60
1 73 47 46 10 37 60 84 26 11 37 79 75 49 51
22 49 33  2 24  3 73 68 21 61 69 94 43 39 48
81 46 21 23 86 19 64 52 22 50 11 73 77 16 75
21 80 30 32 22 23 85 92 14 13 68 60 45 32 90
29 95 52 59 33 12 73 96 75 12 83  3 90 57  6
94 18 54 42 70 29 43 50 75 70 40 48  1 27 12